c width = 2, time = 0.000204
s td 57 3 61
b 1 8 14 21
b 2 21 25
b 3 25 27 32
b 4 40 42
b 5 42 44 54
b 6 27 32 40
b 7 14 8 9
b 8 14 9 10
b 9 14 10 11
b 10 14 11 12
b 11 14 8 7
b 12 14 7 6
b 13 14 6 20
b 14 14 20 19
b 15 14 19 18
b 16 14 18 17
b 17 21 14 15
b 18 21 15 16
b 19 25 21 22
b 20 25 22 23
b 21 25 32 36
b 22 25 36 37
b 23 25 37 38
b 24 25 38 39
b 25 27 25 26
b 26 32 27 28
b 27 32 28 29
b 28 32 29 30
b 29 32 30 31
b 30 40 32 33
b 31 40 33 34
b 32 42 40 41
b 33 44 42 43
b 34 54 44 45
b 35 54 45 47
b 36 54 47 48
b 37 54 48 49
b 38 54 49 50
b 39 54 50 51
b 40 54 51 52
b 41 54 52 53
b 42 54 53 56
b 43 54 56 55
b 44 6 5
b 45 5 4
b 46 4 3
b 47 3 61
b 48 61 60
b 49 60 59
b 50 59 57
b 51 57 46
b 52 46 35
b 53 35 24
b 54 24 13
b 55 13 2
b 56 2 1
b 57 56 58
1 2
2 3
6 4
4 5
3 6
1 7
7 8
8 9
9 10
1 11
11 12
12 13
13 14
14 15
15 16
1 17
17 18
2 19
19 20
3 21
21 22
22 23
23 24
3 25
3 26
26 27
27 28
28 29
6 30
30 31
4 32
5 33
5 34
34 35
35 36
36 37
37 38
38 39
39 40
40 41
41 42
42 43
12 44
44 45
45 46
46 47
47 48
48 49
49 50
50 51
51 52
52 53
53 54
54 55
55 56
42 57
